(set-logic QF_S)
(set-option :strings-exp true)
(set-option :produce-models true)
(declare-fun sigmaStar_0 () String)
(declare-fun literal_8 () String)
(assert (= literal_8 "\x3c\x70\x20\x61\x6c\x69\x67\x6e\x3d\x22\x63\x65\x6e\x74\x65\x72\x22\x3e\x61\x74\x74\x65\x6d\x70\x74\x73\x61\x6c\x6c\x6f\x77\x65\x64\x3a\x20\x3c\x2f\x70\x3e"))
(assert (str.in.re literal_8 (re.++ (re.* re.allchar) (re.++ (str.to.re "\x5c\x3c\x53\x43\x52\x49\x50\x54") (re.* re.allchar)))))
(check-sat)
(get-model)
